Version identifier: 12.10.0.0 | 2019-11-26 | 843d4de
CPXPARAM_WorkMem                                 28672
Tried aggregator 2 times.
MIP Presolve eliminated 24 rows and 0 columns.
MIP Presolve added 48 rows and 0 columns.
Aggregator did 60 substitutions.
Reduced MIP has 126 rows, 110 columns, and 502 nonzeros.
Reduced MIP has 110 binaries, 0 generals, 0 SOSs, and 0 indicators.
Presolve time = 0,00 sec. (1,12 ticks)
Found incumbent of value 92,000000 after 0,00 sec. (1,27 ticks)
Probing fixed 4 vars, tightened 0 bounds.
Probing time = 0,00 sec. (0,84 ticks)
Tried aggregator 1 time.
Detecting symmetries...
MIP Presolve eliminated 4 rows and 4 columns.
Reduced MIP has 122 rows, 106 columns, and 478 nonzeros.
Reduced MIP has 106 binaries, 0 generals, 0 SOSs, and 0 indicators.
Presolve time = 0,00 sec. (0,44 ticks)
Probing time = 0,00 sec. (0,76 ticks)
Clique table members: 396.
MIP emphasis: balance optimality and feasibility.
MIP search method: dynamic search.
Parallel mode: deterministic, using up to 16 threads.
Root relaxation solution time = 0,00 sec. (0,30 ticks)

        Nodes                                         Cuts/
   Node  Left     Objective  IInf  Best Integer    Best Bound    ItCnt     Gap

*     0+    0                           92,0000        4,0000            95,65%
*     0+    0                           87,0000        4,0000            95,40%
*     0+    0                           85,0000        4,0000            95,29%
      0     0       52,0000   106       85,0000       52,0000       45   38,82%
      0     0       65,8977   106       85,0000     Cuts: 130      149   22,47%
      0     0       68,0475   106       85,0000      Cuts: 88      211   19,94%
      0     0       68,6771   106       85,0000     Cuts: 111      259   19,20%
      0     0       69,2127   106       85,0000      Cuts: 56      289   18,57%
      0     0       69,3904   106       85,0000      Cuts: 99      321   18,36%
Detecting symmetries...
      0     0       69,4278   106       85,0000      Cuts: 31      334   18,32%
      0     0       69,4443   106       85,0000      Cuts: 21      345   18,30%
      0     0       69,4467   106       85,0000       Cuts: 6      349   18,30%
      0     0       69,4498   106       85,0000       Cuts: 8      356   18,29%
      0     0       69,4717   106       85,0000       Cuts: 7      372   18,27%
      0     0       69,4796   106       85,0000       Cuts: 4      383   18,26%
      0     0       69,4842   106       85,0000      Cuts: 20      389   18,25%
      0     0        cutoff             85,0000       85,0000      389    0,00%
Elapsed time = 0,06 sec. (44,67 ticks, tree = 0,01 MB, solutions = 3)

Clique cuts applied:  1
Cover cuts applied:  1
Implied bound cuts applied:  39
Flow cuts applied:  1
Mixed integer rounding cuts applied:  4
Zero-half cuts applied:  10
Gomory fractional cuts applied:  16

Root node processing (before b&c):
  Real time             =    0,06 sec. (44,68 ticks)
Parallel b&c, 16 threads:
  Real time             =    0,00 sec. (0,00 ticks)
  Sync time (average)   =    0,00 sec.
  Wait time (average)   =    0,00 sec.
                          ------------
Total (root+branch&cut) =    0,06 sec. (44,68 ticks)
